p tdp 36 60
1 2
1 5
1 9
1 34
2 12
2 28
3 6
3 16
3 22
3 25
4 6
4 16
4 29
5 18
5 19
5 33
6 8
6 14
7 13
7 24
7 34
7 36
8 20
8 25
8 36
9 28
9 33
10 17
10 32
10 35
11 17
11 22
11 25
12 24
12 34
13 14
13 15
13 26
14 29
14 36
15 29
15 31
16 30
17 21
18 20
18 34
18 36
19 20
19 23
19 32
20 21
21 25
21 32
22 30
23 27
23 33
24 26
26 31
27 32
27 35
